100
30
18
18
18
17
7
32
32
7
12
13
27
5
21
18
17
19
32
15
1
32
9
6
7
18
15
22
2
17
1
31
12
32
20
31
3
1
13
1
5
16
31
8
8
2
1
1
19
2
14
3
15
20
2
15
20
3
21
3
19
3
32
31
9
11
3
7
32
3
14
2
2
1
2
15
16
3
2
17
14
2
31
3
5
32
9
3
4
12
24
18
2
2
1
32
5
11
2
15
4
15